data;

set A := 177 852 657 283 859 505 594 551 616 981 698 58 76 755 500 812 779 716 710 86 472 785 791 876 776 532 586 18 751 13 884 367 761 112 145 834 200 88 260 387 546 181 989 589 790 522 61 476 455 57 442 777 152 345 5 379 246 750 552 263 754 60 953 366 921 485 186 149 997 503 424 101 706 800 499 469;
param T := 19000;

end;
